HUN,8,6,772
1,4,2,21,0,2,4,22,5,28,3,9
0,15,1,24,2,5,4,16,5,23,3,18
1,5,0,24,2,3,3,24,5,5,4,27
1,17,0,1,2,29,5,2,3,6,4,16
2,11,0,29,1,20,4,18,5,24,3,16
0,26,2,18,1,16,4,6,5,25,3,20
2,30,0,3,1,11,5,13,4,3,3,1
2,22,0,15,1,4,4,9,3,17,5,20
